Route #1: 44 3 49 24 18 50 32
Route #2: 40 9 39 58 12
Route #3: 26 38 10 31 55 25
Route #4: 11 59 14 53 7
Route #5: 34 46 8 57 15 29 45
Route #6: 4 52 27 13 54 19 35
Route #7: 5 37 20 60 36 47 48
Route #8: 21 61 64 42 41 56 23
Route #9: 16 63 1 43 22 28 62
Route #10: 30 2 33 6 51 17
Cost 847